problem_generation/data/GISP/train/er_n=66_m=1259_p=0.60_SET2_setparam=100.00_alpha=0.50_261.lp
maximize
OBJ:100x0 + 100x1 + 100x2 + 100x3 + 100x4 + 100x5 + 100x6 + 100x7 + 100x8 + 100x9 + 100x10 + 100x11 + 100x12 + 100x13 + 100x14 + 100x15 + 100x16 + 100x17 + 100x18 + 100x19 + 100x20 + 100x21 + 100x22 + 100x23 + 100x24 + 100x25 + 100x26 + 100x27 + 100x28 + 100x29 + 100x30 + 100x31 + 100x32 + 100x33 + 100x34 + 100x35 + 100x36 + 100x37 + 100x38 + 100x39 + 100x40 + 100x41 + 100x42 + 100x43 + 100x44 + 100x45 + 100x46 + 100x47 + 100x48 + 100x49 + 100x50 + 100x51 + 100x52 + 100x53 + 100x54 + 100x55 + 100x56 + 100x57 + 100x58 + 100x59 + 100x60 + 100x61 + 100x62 + 100x63 + 100x64 + 100x65 - y5_65 - y18_44 - y40_41 - y48_54 - y0_14 - y11_14 - y29_50 - y0_23 - y21_64 - y33_38 - y41_51 - y10_45 - y44_47 - y2_41 - y10_54 - y2_50 - y3_15 - y22_28 - y2_59 - y22_46 - y35_65 - y3_42 - y15_25 - y6_34 - y6_43 - y6_61 - y21_59 - y10_22 - y25_29 - y10_40 - y10_49 - y2_45 - y3_10 - y10_58 - y25_47 - y51_59 - y3_28 - y14_28 - y35_60 - y3_37 - y7_16 - y47_52 - y5_46 - y9_44 - y17_57 - y9_62 - y6_38 - y40_49 - y21_45 - y6_56 - y40_58 - y21_54 - y10_17 - y2_13 - y10_26 - y62_64 - y54_60 - y10_35 - y33_37 - y12_63 - y3_5 - y51_54 - y24_46 - y3_23 - y43_59 - y1_53 - y24_55 - y14_32 - y35_64 - y28_34 - y7_11 - y9_30 - y36_56 - y17_52 - y28_52 - y36_65 - y9_48 - y28_61 - y9_57 - y29_35 - y21_40 - y6_51 - y2_17 - y20_53 - y54_64 - y13_41 - y3_18 - y13_50 - y32_63 - y24_59 - y16_64 - y28_29 - y36_42 - y9_25 - y17_38 - y36_51 - y28_47 - y6_10 - y5_54 - y6_19 - y17_56 - y50_53 - y42_58 - y19_65 - y30_65 - y20_48 - y39_61 - y2_21 - y23_53 - y2_30 - y32_40 - y51_53 - y13_36 - y16_32 - y13_45 - y32_58 - y43_58 - y13_54 - y35_54 - y16_50 - y24_63 - y17_24 - y5_31 - y9_29 - y28_42 - y9_38 - y42_44 - y27_55 - y21_30 - y19_60 - y30_60 - y0_56 - y20_34 - y31_34 - y0_65 - y10_11 - y39_47 - y39_56 - y12_39 - y31_52 - y23_48 - y31_61 - y12_57 - y32_35 - y4_62 - y16_27 - y43_44 - y16_36 - y35_49 - y35_58 - y46_55 - y5_26 - y5_44 - y27_50 - y42_48 - y27_59 - y8_64 - y19_64 - y0_60 - y23_34 - y31_56 - y23_61 - y24_44 - y35_44 - y37_63 - y5_12 - y9_10 - y5_21 - y9_19 - y38_64 - y49_64 - y42_43 - y50_56 - y11_37 - y27_63 - y31_33 - y11_64 - y31_42 - y4_25 - y12_38 - y12_56 - y1_19 - y45_53 - y13_30 - y56_62 - y37_58 - y9_14 - y26_48 - y57_63 - y7_44 - y18_53 - y18_62 - y8_36 - y30_36 - y11_32 - y42_47 - y8_54 - y19_54 - y12_15 - y60_64 - y11_59 - y31_37 - y12_33 - y23_33 - y44_65 - y23_42 - y4_47 - y34_48 - y37_44 - y56_57 - y3_51 - y16_30 - y14_60 - y15_34 - y26_34 - y5_11 - y46_49 - y57_58 - y7_39 - y15_52 - y26_52 - y38_54 - y18_48 - y8_13 - y38_63 - y49_54 - y49_63 - y18_57 - y0_18 - y8_31 - y0_27 - y11_36 - y4_6 - y0_54 - y12_19 - y41_64 - y12_37 - y25_56 - y1_9 - y2_63 - y25_65 - y34_43 - y53_65 - y14_46 - y34_61 - y15_29 - y38_40 - y15_47 - y7_43 - y18_52 - y8_17 - y0_13 - y27_39 - y29_58 - y0_31 - y8_44 - y0_40 - y41_50 - y4_10 - y33_46 - y10_53 - y25_51 - y4_28 - y10_62 - y33_64 - y2_58 - y44_64 - y22_36 - y34_56 - y56_65 - y7_29 - y7_38 - y18_47 - y8_12 - y8_21 - y19_21 - y40_53 - y0_26 - y21_58 - y4_5 - y10_57 - y33_59 - y25_55 - y14_45 - y14_54 - y18_24 - y36_60 - y28_65 - y7_42 - y0_3 - y11_12 - y29_48 - y48_61 - y6_55 - y11_21 - y29_57 - y40_57 - y21_62 - y33_45 - y41_58 - y33_54 - y44_54 - y3_13 - y51_62 - y14_22 - y3_40 - y3_49 - y14_49 - y36_46 - y7_19 - y36_55 - y26_32 - y9_56 - y29_34 - y8_11 - y21_39 - y6_50 - y21_48 - y40_61 - y21_57 - y10_38 - y33_49 - y2_43 - y10_56 - y51_57 - y14_17 - y22_30 - y3_26 - y14_26 - y43_62 - y24_58 - y14_35 - y28_46 - y36_59 - y9_42 - y5_53 - y9_51 - y21_34 - y6_45 - y40_56 - y6_63 - y10_24 - y33_35 - y2_29 - y20_65 - y25_31 - y33_44 - y2_38 - y25_40 - y51_52 - y2_47 - y3_21 - y43_57 - y35_53 - y35_62 - y47_54 - y9_46 - y17_59 - y29_33 - y50_65 - y61_65 - y6_40 - y40_42 - y29_51 - y40_51 - y2_15 - y10_37 - y3_7 - y32_52 - y13_48 - y24_48 - y35_48 - y43_61 - y24_57 - y16_53 - y9_23 - y17_36 - y47_49 - y47_58 - y21_33 - y20_46 - y31_46 - y54_57 - y10_32 - y12_51 - y23_51 - y51_60 - y1_50 - y35_52 - y35_61 - y9_18 - y17_31 - y28_31 - y17_40 - y28_40 - y17_49 - y28_49 - y6_21 - y9_54 - y21_28 - y42_60 - y10_18 - y39_63 - y20_59 - y4_42 - y31_59 - y23_55 - y1_27 - y24_29 - y4_60 - y16_25 - y51_55 - y13_47 - y1_54 - y24_56 - y16_52 - y1_63 - y9_13 - y17_26 - y9_22 - y38_58 - y17_35 - y28_35 - y15_65 - y21_23 - y27_57 - y8_53 - y19_53 - y39_40 - y31_36 - y10_13 - y12_32 - y39_49 - y20_45 - y12_41 - y4_37 - y23_50 - y4_46 - y12_59 - y32_37 - y16_20 - y1_31 - y32_46 - y43_46 - y1_40 - y35_51 - y16_47 - y5_10 - y5_19 - y5_28 - y9_26 - y38_62 - y27_34 - y8_48 - y50_63 - y11_53 - y12_18 - y20_31 - y0_62 - y11_62 - y39_44 - y12_36 - y23_36 - y1_8 - y20_58 - y12_54 - y53_55 - y4_50 - y13_28 - y24_28 - y16_24 - y34_60 - y45_60 - y1_44 - y37_65 - y16_42 - y5_14 - y9_12 - y46_61 - y26_55 - y38_57 - y15_64 - y26_64 - y0_30 - y42_45 - y27_56 - y0_39 - y42_54 - y27_65 - y0_48 - y11_48 - y8_61 - y30_61 - y0_57 - y12_31 - y45_46 - y1_21 - y53_59 - y4_54 - y16_19 - y34_55 - y1_30 - y37_51 - y22_62 - y45_64 - y14_58 - y46_47 - y26_41 - y46_56 - y46_65 - y26_59 - y49_61 - y7_55 - y18_55 - y19_20 - y27_33 - y7_64 - y8_29 - y18_64 - y30_38 - y30_47 - y8_56 - y20_21 - y11_52 - y52_53 - y12_26 - y44_58 - y1_7 - y25_63 - y4_40 - y34_41 - y1_25 - y16_23 - y34_59 - y3_62 - y14_62 - y15_27 - y26_45 - y7_41 - y18_41 - y15_54 - y49_56 - y7_50 - y8_15 - y15_63 - y26_63 - y0_11 - y18_59 - y8_24 - y11_20 - y29_65 - y40_65 - y8_42 - y30_42 - y30_51 - y0_47 - y33_53 - y10_60 - y33_62 - y44_62 - y4_35 - y22_43 - y22_52 - y37_50 - y22_61 - y45_63 - y37_59 - y7_18 - y37_49 - y18_36 - y7_45 - y8_10 - y0_15 - y11_15 - y8_28 - y40_60 - y41_43 - y12_16 - y10_55 - y10_64 - y3_34 - y45_49 - y3_52 - y15_17 - y22_65 - y7_13 - y55_62 - y7_22 - y59_60 - y15_35 - y26_35 - y7_31 - y15_44 - y18_40 - y18_49 - y0_10 - y40_46 - y19_23 - y40_55 - y30_32 - y11_28 - y10_41 - y52_56 - y25_39 - y4_16 - y10_50 - y52_65 - y2_46 - y10_59 - y33_61 - y3_29 - y34_44 - y3_38 - y22_51 - y14_47 - y7_8 - y3_56
 Subject to
C1: x0+x1 <=1 
C2: x0+x3-y0_3 <=1 
C3: x0+x4 <=1 
C4: x0+x6 <=1 
C5: x0+x9 <=1 
C6: x0+x10-y0_10 <=1 
C7: x0+x11-y0_11 <=1 
C8: x0+x12 <=1 
C9: x0+x13-y0_13 <=1 
C10: x0+x14-y0_14 <=1 
C11: x0+x15-y0_15 <=1 
C12: x0+x16 <=1 
C13: x0+x18-y0_18 <=1 
C14: x0+x21 <=1 
C15: x0+x23-y0_23 <=1 
C16: x0+x24 <=1 
C17: x0+x26-y0_26 <=1 
C18: x0+x27-y0_27 <=1 
C19: x0+x30-y0_30 <=1 
C20: x0+x31-y0_31 <=1 
C21: x0+x36 <=1 
C22: x0+x39-y0_39 <=1 
C23: x0+x40-y0_40 <=1 
C24: x0+x42 <=1 
C25: x0+x47-y0_47 <=1 
C26: x0+x48-y0_48 <=1 
C27: x0+x49 <=1 
C28: x0+x50 <=1 
C29: x0+x54-y0_54 <=1 
C30: x0+x56-y0_56 <=1 
C31: x0+x57-y0_57 <=1 
C32: x0+x58 <=1 
C33: x0+x60-y0_60 <=1 
C34: x0+x62-y0_62 <=1 
C35: x0+x65-y0_65 <=1 
C36: x1+x2 <=1 
C37: x1+x4 <=1 
C38: x1+x5 <=1 
C39: x1+x7-y1_7 <=1 
C40: x1+x8-y1_8 <=1 
C41: x1+x9-y1_9 <=1 
C42: x1+x10 <=1 
C43: x1+x12 <=1 
C44: x1+x13 <=1 
C45: x1+x14 <=1 
C46: x1+x15 <=1 
C47: x1+x16 <=1 
C48: x1+x17 <=1 
C49: x1+x18 <=1 
C50: x1+x19-y1_19 <=1 
C51: x1+x21-y1_21 <=1 
C52: x1+x23 <=1 
C53: x1+x24 <=1 
C54: x1+x25-y1_25 <=1 
C55: x1+x27-y1_27 <=1 
C56: x1+x29 <=1 
C57: x1+x30-y1_30 <=1 
C58: x1+x31-y1_31 <=1 
C59: x1+x32 <=1 
C60: x1+x33 <=1 
C61: x1+x34 <=1 
C62: x1+x36 <=1 
C63: x1+x40-y1_40 <=1 
C64: x1+x41 <=1 
C65: x1+x44-y1_44 <=1 
C66: x1+x45 <=1 
C67: x1+x50-y1_50 <=1 
C68: x1+x53-y1_53 <=1 
C69: x1+x54-y1_54 <=1 
C70: x1+x56 <=1 
C71: x1+x57 <=1 
C72: x1+x58 <=1 
C73: x1+x60 <=1 
C74: x1+x62 <=1 
C75: x1+x63-y1_63 <=1 
C76: x1+x64 <=1 
C77: x1+x65 <=1 
C78: x2+x4 <=1 
C79: x2+x6 <=1 
C80: x2+x11 <=1 
C81: x2+x12 <=1 
C82: x2+x13-y2_13 <=1 
C83: x2+x15-y2_15 <=1 
C84: x2+x16 <=1 
C85: x2+x17-y2_17 <=1 
C86: x2+x18 <=1 
C87: x2+x21-y2_21 <=1 
C88: x2+x23 <=1 
C89: x2+x28 <=1 
C90: x2+x29-y2_29 <=1 
C91: x2+x30-y2_30 <=1 
C92: x2+x31 <=1 
C93: x2+x32 <=1 
C94: x2+x33 <=1 
C95: x2+x34 <=1 
C96: x2+x36 <=1 
C97: x2+x37 <=1 
C98: x2+x38-y2_38 <=1 
C99: x2+x39 <=1 
C100: x2+x41-y2_41 <=1 
C101: x2+x42 <=1 
C102: x2+x43-y2_43 <=1 
C103: x2+x45-y2_45 <=1 
C104: x2+x46-y2_46 <=1 
C105: x2+x47-y2_47 <=1 
C106: x2+x48 <=1 
C107: x2+x50-y2_50 <=1 
C108: x2+x51 <=1 
C109: x2+x55 <=1 
C110: x2+x57 <=1 
C111: x2+x58-y2_58 <=1 
C112: x2+x59-y2_59 <=1 
C113: x2+x62 <=1 
C114: x2+x63-y2_63 <=1 
C115: x2+x65 <=1 
C116: x3+x5-y3_5 <=1 
C117: x3+x7-y3_7 <=1 
C118: x3+x8 <=1 
C119: x3+x9 <=1 
C120: x3+x10-y3_10 <=1 
C121: x3+x11 <=1 
C122: x3+x12 <=1 
C123: x3+x13-y3_13 <=1 
C124: x3+x14 <=1 
C125: x3+x15-y3_15 <=1 
C126: x3+x18-y3_18 <=1 
C127: x3+x21-y3_21 <=1 
C128: x3+x23-y3_23 <=1 
C129: x3+x26-y3_26 <=1 
C130: x3+x27 <=1 
C131: x3+x28-y3_28 <=1 
C132: x3+x29-y3_29 <=1 
C133: x3+x32 <=1 
C134: x3+x34-y3_34 <=1 
C135: x3+x35 <=1 
C136: x3+x36 <=1 
C137: x3+x37-y3_37 <=1 
C138: x3+x38-y3_38 <=1 
C139: x3+x39 <=1 
C140: x3+x40-y3_40 <=1 
C141: x3+x41 <=1 
C142: x3+x42-y3_42 <=1 
C143: x3+x43 <=1 
C144: x3+x44 <=1 
C145: x3+x47 <=1 
C146: x3+x49-y3_49 <=1 
C147: x3+x50 <=1 
C148: x3+x51-y3_51 <=1 
C149: x3+x52-y3_52 <=1 
C150: x3+x54 <=1 
C151: x3+x55 <=1 
C152: x3+x56-y3_56 <=1 
C153: x3+x58 <=1 
C154: x3+x59 <=1 
C155: x3+x61 <=1 
C156: x3+x62-y3_62 <=1 
C157: x3+x63 <=1 
C158: x3+x65 <=1 
C159: x4+x5-y4_5 <=1 
C160: x4+x6-y4_6 <=1 
C161: x4+x7 <=1 
C162: x4+x8 <=1 
C163: x4+x9 <=1 
C164: x4+x10-y4_10 <=1 
C165: x4+x11 <=1 
C166: x4+x13 <=1 
C167: x4+x15 <=1 
C168: x4+x16-y4_16 <=1 
C169: x4+x18 <=1 
C170: x4+x20 <=1 
C171: x4+x21 <=1 
C172: x4+x23 <=1 
C173: x4+x24 <=1 
C174: x4+x25-y4_25 <=1 
C175: x4+x28-y4_28 <=1 
C176: x4+x31 <=1 
C177: x4+x32 <=1 
C178: x4+x35-y4_35 <=1 
C179: x4+x36 <=1 
C180: x4+x37-y4_37 <=1 
C181: x4+x38 <=1 
C182: x4+x40-y4_40 <=1 
C183: x4+x41 <=1 
C184: x4+x42-y4_42 <=1 
C185: x4+x43 <=1 
C186: x4+x44 <=1 
C187: x4+x46-y4_46 <=1 
C188: x4+x47-y4_47 <=1 
C189: x4+x49 <=1 
C190: x4+x50-y4_50 <=1 
C191: x4+x53 <=1 
C192: x4+x54-y4_54 <=1 
C193: x4+x56 <=1 
C194: x4+x57 <=1 
C195: x4+x58 <=1 
C196: x4+x60-y4_60 <=1 
C197: x4+x62-y4_62 <=1 
C198: x4+x64 <=1 
C199: x4+x65 <=1 
C200: x5+x6 <=1 
C201: x5+x10-y5_10 <=1 
C202: x5+x11-y5_11 <=1 
C203: x5+x12-y5_12 <=1 
C204: x5+x14-y5_14 <=1 
C205: x5+x15 <=1 
C206: x5+x16 <=1 
C207: x5+x19-y5_19 <=1 
C208: x5+x21-y5_21 <=1 
C209: x5+x23 <=1 
C210: x5+x26-y5_26 <=1 
C211: x5+x28-y5_28 <=1 
C212: x5+x29 <=1 
C213: x5+x30 <=1 
C214: x5+x31-y5_31 <=1 
C215: x5+x33 <=1 
C216: x5+x38 <=1 
C217: x5+x39 <=1 
C218: x5+x40 <=1 
C219: x5+x43 <=1 
C220: x5+x44-y5_44 <=1 
C221: x5+x45 <=1 
C222: x5+x46-y5_46 <=1 
C223: x5+x49 <=1 
C224: x5+x51 <=1 
C225: x5+x52 <=1 
C226: x5+x53-y5_53 <=1 
C227: x5+x54-y5_54 <=1 
C228: x5+x58 <=1 
C229: x5+x59 <=1 
C230: x5+x61 <=1 
C231: x5+x65-y5_65 <=1 
C232: x6+x7 <=1 
C233: x6+x9 <=1 
C234: x6+x10-y6_10 <=1 
C235: x6+x13 <=1 
C236: x6+x14 <=1 
C237: x6+x16 <=1 
C238: x6+x19-y6_19 <=1 
C239: x6+x20 <=1 
C240: x6+x21-y6_21 <=1 
C241: x6+x25 <=1 
C242: x6+x26 <=1 
C243: x6+x29 <=1 
C244: x6+x30 <=1 
C245: x6+x34-y6_34 <=1 
C246: x6+x35 <=1 
C247: x6+x37 <=1 
C248: x6+x38-y6_38 <=1 
C249: x6+x39 <=1 
C250: x6+x40-y6_40 <=1 
C251: x6+x42 <=1 
C252: x6+x43-y6_43 <=1 
C253: x6+x44 <=1 
C254: x6+x45-y6_45 <=1 
C255: x6+x47 <=1 
C256: x6+x49 <=1 
C257: x6+x50-y6_50 <=1 
C258: x6+x51-y6_51 <=1 
C259: x6+x54 <=1 
C260: x6+x55-y6_55 <=1 
C261: x6+x56-y6_56 <=1 
C262: x6+x57 <=1 
C263: x6+x60 <=1 
C264: x6+x61-y6_61 <=1 
C265: x6+x63-y6_63 <=1 
C266: x7+x8-y7_8 <=1 
C267: x7+x10 <=1 
C268: x7+x11-y7_11 <=1 
C269: x7+x13-y7_13 <=1 
C270: x7+x16-y7_16 <=1 
C271: x7+x18-y7_18 <=1 
C272: x7+x19-y7_19 <=1 
C273: x7+x20 <=1 
C274: x7+x22-y7_22 <=1 
C275: x7+x23 <=1 
C276: x7+x26 <=1 
C277: x7+x27 <=1 
C278: x7+x28 <=1 
C279: x7+x29-y7_29 <=1 
C280: x7+x31-y7_31 <=1 
C281: x7+x33 <=1 
C282: x7+x35 <=1 
C283: x7+x38-y7_38 <=1 
C284: x7+x39-y7_39 <=1 
C285: x7+x41-y7_41 <=1 
C286: x7+x42-y7_42 <=1 
C287: x7+x43-y7_43 <=1 
C288: x7+x44-y7_44 <=1 
C289: x7+x45-y7_45 <=1 
C290: x7+x50-y7_50 <=1 
C291: x7+x51 <=1 
C292: x7+x52 <=1 
C293: x7+x55-y7_55 <=1 
C294: x7+x59 <=1 
C295: x7+x60 <=1 
C296: x7+x62 <=1 
C297: x7+x64-y7_64 <=1 
C298: x8+x10-y8_10 <=1 
C299: x8+x11-y8_11 <=1 
C300: x8+x12-y8_12 <=1 
C301: x8+x13-y8_13 <=1 
C302: x8+x14 <=1 
C303: x8+x15-y8_15 <=1 
C304: x8+x16 <=1 
C305: x8+x17-y8_17 <=1 
C306: x8+x21-y8_21 <=1 
C307: x8+x23 <=1 
C308: x8+x24-y8_24 <=1 
C309: x8+x25 <=1 
C310: x8+x26 <=1 
C311: x8+x27 <=1 
C312: x8+x28-y8_28 <=1 
C313: x8+x29-y8_29 <=1 
C314: x8+x31-y8_31 <=1 
C315: x8+x34 <=1 
C316: x8+x35 <=1 
C317: x8+x36-y8_36 <=1 
C318: x8+x38 <=1 
C319: x8+x41 <=1 
C320: x8+x42-y8_42 <=1 
C321: x8+x44-y8_44 <=1 
C322: x8+x48-y8_48 <=1 
C323: x8+x50 <=1 
C324: x8+x53-y8_53 <=1 
C325: x8+x54-y8_54 <=1 
C326: x8+x56-y8_56 <=1 
C327: x8+x58 <=1 
C328: x8+x59 <=1 
C329: x8+x61-y8_61 <=1 
C330: x8+x63 <=1 
C331: x8+x64-y8_64 <=1 
C332: x9+x10-y9_10 <=1 
C333: x9+x12-y9_12 <=1 
C334: x9+x13-y9_13 <=1 
C335: x9+x14-y9_14 <=1 
C336: x9+x15 <=1 
C337: x9+x16 <=1 
C338: x9+x18-y9_18 <=1 
C339: x9+x19-y9_19 <=1 
C340: x9+x20 <=1 
C341: x9+x21 <=1 
C342: x9+x22-y9_22 <=1 
C343: x9+x23-y9_23 <=1 
C344: x9+x24 <=1 
C345: x9+x25-y9_25 <=1 
C346: x9+x26-y9_26 <=1 
C347: x9+x28 <=1 
C348: x9+x29-y9_29 <=1 
C349: x9+x30-y9_30 <=1 
C350: x9+x33 <=1 
C351: x9+x34 <=1 
C352: x9+x37 <=1 
C353: x9+x38-y9_38 <=1 
C354: x9+x41 <=1 
C355: x9+x42-y9_42 <=1 
C356: x9+x44-y9_44 <=1 
C357: x9+x46-y9_46 <=1 
C358: x9+x48-y9_48 <=1 
C359: x9+x49 <=1 
C360: x9+x50 <=1 
C361: x9+x51-y9_51 <=1 
C362: x9+x52 <=1 
C363: x9+x54-y9_54 <=1 
C364: x9+x55 <=1 
C365: x9+x56-y9_56 <=1 
C366: x9+x57-y9_57 <=1 
C367: x9+x58 <=1 
C368: x9+x62-y9_62 <=1 
C369: x9+x63 <=1 
C370: x9+x64 <=1 
C371: x10+x11-y10_11 <=1 
C372: x10+x13-y10_13 <=1 
C373: x10+x14 <=1 
C374: x10+x16 <=1 
C375: x10+x17-y10_17 <=1 
C376: x10+x18-y10_18 <=1 
C377: x10+x19 <=1 
C378: x10+x20 <=1 
C379: x10+x22-y10_22 <=1 
C380: x10+x23 <=1 
C381: x10+x24-y10_24 <=1 
C382: x10+x25 <=1 
C383: x10+x26-y10_26 <=1 
C384: x10+x27 <=1 
C385: x10+x28 <=1 
C386: x10+x29 <=1 
C387: x10+x30 <=1 
C388: x10+x32-y10_32 <=1 
C389: x10+x34 <=1 
C390: x10+x35-y10_35 <=1 
C391: x10+x37-y10_37 <=1 
C392: x10+x38-y10_38 <=1 
C393: x10+x40-y10_40 <=1 
C394: x10+x41-y10_41 <=1 
C395: x10+x42 <=1 
C396: x10+x43 <=1 
C397: x10+x44 <=1 
C398: x10+x45-y10_45 <=1 
C399: x10+x49-y10_49 <=1 
C400: x10+x50-y10_50 <=1 
C401: x10+x52 <=1 
C402: x10+x53-y10_53 <=1 
C403: x10+x54-y10_54 <=1 
C404: x10+x55-y10_55 <=1 
C405: x10+x56-y10_56 <=1 
C406: x10+x57-y10_57 <=1 
C407: x10+x58-y10_58 <=1 
C408: x10+x59-y10_59 <=1 
C409: x10+x60-y10_60 <=1 
C410: x10+x61 <=1 
C411: x10+x62-y10_62 <=1 
C412: x10+x64-y10_64 <=1 
C413: x10+x65 <=1 
C414: x11+x12-y11_12 <=1 
C415: x11+x14-y11_14 <=1 
C416: x11+x15-y11_15 <=1 
C417: x11+x16 <=1 
C418: x11+x20-y11_20 <=1 
C419: x11+x21-y11_21 <=1 
C420: x11+x23 <=1 
C421: x11+x26 <=1 
C422: x11+x28-y11_28 <=1 
C423: x11+x32-y11_32 <=1 
C424: x11+x36-y11_36 <=1 
C425: x11+x37-y11_37 <=1 
C426: x11+x39 <=1 
C427: x11+x40 <=1 
C428: x11+x44 <=1 
C429: x11+x46 <=1 
C430: x11+x47 <=1 
C431: x11+x48-y11_48 <=1 
C432: x11+x49 <=1 
C433: x11+x52-y11_52 <=1 
C434: x11+x53-y11_53 <=1 
C435: x11+x54 <=1 
C436: x11+x55 <=1 
C437: x11+x56 <=1 
C438: x11+x59-y11_59 <=1 
C439: x11+x60 <=1 
C440: x11+x62-y11_62 <=1 
C441: x11+x64-y11_64 <=1 
C442: x11+x65 <=1 
C443: x12+x15-y12_15 <=1 
C444: x12+x16-y12_16 <=1 
C445: x12+x18-y12_18 <=1 
C446: x12+x19-y12_19 <=1 
C447: x12+x26-y12_26 <=1 
C448: x12+x27 <=1 
C449: x12+x28 <=1 
C450: x12+x31-y12_31 <=1 
C451: x12+x32-y12_32 <=1 
C452: x12+x33-y12_33 <=1 
C453: x12+x34 <=1 
C454: x12+x36-y12_36 <=1 
C455: x12+x37-y12_37 <=1 
C456: x12+x38-y12_38 <=1 
C457: x12+x39-y12_39 <=1 
C458: x12+x41-y12_41 <=1 
C459: x12+x43 <=1 
C460: x12+x44 <=1 
C461: x12+x47 <=1 
C462: x12+x49 <=1 
C463: x12+x51-y12_51 <=1 
C464: x12+x52 <=1 
C465: x12+x54-y12_54 <=1 
C466: x12+x55 <=1 
C467: x12+x56-y12_56 <=1 
C468: x12+x57-y12_57 <=1 
C469: x12+x59-y12_59 <=1 
C470: x12+x63-y12_63 <=1 
C471: x13+x14 <=1 
C472: x13+x15 <=1 
C473: x13+x16 <=1 
C474: x13+x17 <=1 
C475: x13+x19 <=1 
C476: x13+x21 <=1 
C477: x13+x22 <=1 
C478: x13+x26 <=1 
C479: x13+x27 <=1 
C480: x13+x28-y13_28 <=1 
C481: x13+x29 <=1 
C482: x13+x30-y13_30 <=1 
C483: x13+x32 <=1 
C484: x13+x36-y13_36 <=1 
C485: x13+x41-y13_41 <=1 
C486: x13+x44 <=1 
C487: x13+x45-y13_45 <=1 
C488: x13+x47-y13_47 <=1 
C489: x13+x48-y13_48 <=1 
C490: x13+x50-y13_50 <=1 
C491: x13+x53 <=1 
C492: x13+x54-y13_54 <=1 
C493: x13+x56 <=1 
C494: x13+x61 <=1 
C495: x13+x62 <=1 
C496: x13+x65 <=1 
C497: x14+x16 <=1 
C498: x14+x17-y14_17 <=1 
C499: x14+x18 <=1 
C500: x14+x22-y14_22 <=1 
C501: x14+x24 <=1 
C502: x14+x26-y14_26 <=1 
C503: x14+x27 <=1 
C504: x14+x28-y14_28 <=1 
C505: x14+x31 <=1 
C506: x14+x32-y14_32 <=1 
C507: x14+x35-y14_35 <=1 
C508: x14+x40 <=1 
C509: x14+x41 <=1 
C510: x14+x43 <=1 
C511: x14+x45-y14_45 <=1 
C512: x14+x46-y14_46 <=1 
C513: x14+x47-y14_47 <=1 
C514: x14+x49-y14_49 <=1 
C515: x14+x51 <=1 
C516: x14+x52 <=1 
C517: x14+x54-y14_54 <=1 
C518: x14+x58-y14_58 <=1 
C519: x14+x60-y14_60 <=1 
C520: x14+x62-y14_62 <=1 
C521: x15+x16 <=1 
C522: x15+x17-y15_17 <=1 
C523: x15+x20 <=1 
C524: x15+x21 <=1 
C525: x15+x25-y15_25 <=1 
C526: x15+x27-y15_27 <=1 
C527: x15+x29-y15_29 <=1 
C528: x15+x30 <=1 
C529: x15+x33 <=1 
C530: x15+x34-y15_34 <=1 
C531: x15+x35-y15_35 <=1 
C532: x15+x37 <=1 
C533: x15+x41 <=1 
C534: x15+x42 <=1 
C535: x15+x43 <=1 
C536: x15+x44-y15_44 <=1 
C537: x15+x45 <=1 
C538: x15+x47-y15_47 <=1 
C539: x15+x52-y15_52 <=1 
C540: x15+x53 <=1 
C541: x15+x54-y15_54 <=1 
C542: x15+x56 <=1 
C543: x15+x57 <=1 
C544: x15+x58 <=1 
C545: x15+x60 <=1 
C546: x15+x62 <=1 
C547: x15+x63-y15_63 <=1 
C548: x15+x64-y15_64 <=1 
C549: x15+x65-y15_65 <=1 
C550: x16+x18 <=1 
C551: x16+x19-y16_19 <=1 
C552: x16+x20-y16_20 <=1 
C553: x16+x22 <=1 
C554: x16+x23-y16_23 <=1 
C555: x16+x24-y16_24 <=1 
C556: x16+x25-y16_25 <=1 
C557: x16+x26 <=1 
C558: x16+x27-y16_27 <=1 
C559: x16+x28 <=1 
C560: x16+x30-y16_30 <=1 
C561: x16+x31 <=1 
C562: x16+x32-y16_32 <=1 
C563: x16+x33 <=1 
C564: x16+x36-y16_36 <=1 
C565: x16+x37 <=1 
C566: x16+x40 <=1 
C567: x16+x42-y16_42 <=1 
C568: x16+x43 <=1 
C569: x16+x44 <=1 
C570: x16+x47-y16_47 <=1 
C571: x16+x48 <=1 
C572: x16+x49 <=1 
C573: x16+x50-y16_50 <=1 
C574: x16+x51 <=1 
C575: x16+x52-y16_52 <=1 
C576: x16+x53-y16_53 <=1 
C577: x16+x54 <=1 
C578: x16+x56 <=1 
C579: x16+x57 <=1 
C580: x16+x61 <=1 
C581: x16+x64-y16_64 <=1 
C582: x16+x65 <=1 
C583: x17+x18 <=1 
C584: x17+x19 <=1 
C585: x17+x20 <=1 
C586: x17+x21 <=1 
C587: x17+x23 <=1 
C588: x17+x24-y17_24 <=1 
C589: x17+x26-y17_26 <=1 
C590: x17+x27 <=1 
C591: x17+x30 <=1 
C592: x17+x31-y17_31 <=1 
C593: x17+x32 <=1 
C594: x17+x33 <=1 
C595: x17+x34 <=1 
C596: x17+x35-y17_35 <=1 
C597: x17+x36-y17_36 <=1 
C598: x17+x37 <=1 
C599: x17+x38-y17_38 <=1 
C600: x17+x39 <=1 
C601: x17+x40-y17_40 <=1 
C602: x17+x45 <=1 
C603: x17+x47 <=1 
C604: x17+x49-y17_49 <=1 
C605: x17+x51 <=1 
C606: x17+x52-y17_52 <=1 
C607: x17+x53 <=1 
C608: x17+x56-y17_56 <=1 
C609: x17+x57-y17_57 <=1 
C610: x17+x58 <=1 
C611: x17+x59-y17_59 <=1 
C612: x18+x21 <=1 
C613: x18+x22 <=1 
C614: x18+x24-y18_24 <=1 
C615: x18+x27 <=1 
C616: x18+x28 <=1 
C617: x18+x35 <=1 
C618: x18+x36-y18_36 <=1 
C619: x18+x38 <=1 
C620: x18+x39 <=1 
C621: x18+x40-y18_40 <=1 
C622: x18+x41-y18_41 <=1 
C623: x18+x42 <=1 
C624: x18+x43 <=1 
C625: x18+x44-y18_44 <=1 
C626: x18+x45 <=1 
C627: x18+x46 <=1 
C628: x18+x47-y18_47 <=1 
C629: x18+x48-y18_48 <=1 
C630: x18+x49-y18_49 <=1 
C631: x18+x52-y18_52 <=1 
C632: x18+x53-y18_53 <=1 
C633: x18+x55-y18_55 <=1 
C634: x18+x56 <=1 
C635: x18+x57-y18_57 <=1 
C636: x18+x58 <=1 
C637: x18+x59-y18_59 <=1 
C638: x18+x62-y18_62 <=1 
C639: x18+x64-y18_64 <=1 
C640: x18+x65 <=1 
C641: x19+x20-y19_20 <=1 
C642: x19+x21-y19_21 <=1 
C643: x19+x23-y19_23 <=1 
C644: x19+x25 <=1 
C645: x19+x30 <=1 
C646: x19+x38 <=1 
C647: x19+x39 <=1 
C648: x19+x40 <=1 
C649: x19+x42 <=1 
C650: x19+x43 <=1 
C651: x19+x51 <=1 
C652: x19+x53-y19_53 <=1 
C653: x19+x54-y19_54 <=1 
C654: x19+x56 <=1 
C655: x19+x60-y19_60 <=1 
C656: x19+x61 <=1 
C657: x19+x64-y19_64 <=1 
C658: x19+x65-y19_65 <=1 
C659: x20+x21-y20_21 <=1 
C660: x20+x23 <=1 
C661: x20+x25 <=1 
C662: x20+x29 <=1 
C663: x20+x30 <=1 
C664: x20+x31-y20_31 <=1 
C665: x20+x32 <=1 
C666: x20+x34-y20_34 <=1 
C667: x20+x35 <=1 
C668: x20+x36 <=1 
C669: x20+x41 <=1 
C670: x20+x43 <=1 
C671: x20+x44 <=1 
C672: x20+x45-y20_45 <=1 
C673: x20+x46-y20_46 <=1 
C674: x20+x48-y20_48 <=1 
C675: x20+x49 <=1 
C676: x20+x51 <=1 
C677: x20+x53-y20_53 <=1 
C678: x20+x55 <=1 
C679: x20+x56 <=1 
C680: x20+x57 <=1 
C681: x20+x58-y20_58 <=1 
C682: x20+x59-y20_59 <=1 
C683: x20+x60 <=1 
C684: x20+x65-y20_65 <=1 
C685: x21+x23-y21_23 <=1 
C686: x21+x24 <=1 
C687: x21+x27 <=1 
C688: x21+x28-y21_28 <=1 
C689: x21+x29 <=1 
C690: x21+x30-y21_30 <=1 
C691: x21+x33-y21_33 <=1 
C692: x21+x34-y21_34 <=1 
C693: x21+x37 <=1 
C694: x21+x39-y21_39 <=1 
C695: x21+x40-y21_40 <=1 
C696: x21+x43 <=1 
C697: x21+x45-y21_45 <=1 
C698: x21+x48-y21_48 <=1 
C699: x21+x51 <=1 
C700: x21+x52 <=1 
C701: x21+x53 <=1 
C702: x21+x54-y21_54 <=1 
C703: x21+x57-y21_57 <=1 
C704: x21+x58-y21_58 <=1 
C705: x21+x59-y21_59 <=1 
C706: x21+x62-y21_62 <=1 
C707: x21+x64-y21_64 <=1 
C708: x21+x65 <=1 
C709: x22+x24 <=1 
C710: x22+x28-y22_28 <=1 
C711: x22+x29 <=1 
C712: x22+x30-y22_30 <=1 
C713: x22+x36-y22_36 <=1 
C714: x22+x38 <=1 
C715: x22+x43-y22_43 <=1 
C716: x22+x44 <=1 
C717: x22+x46-y22_46 <=1 
C718: x22+x48 <=1 
C719: x22+x50 <=1 
C720: x22+x51-y22_51 <=1 
C721: x22+x52-y22_52 <=1 
C722: x22+x53 <=1 
C723: x22+x55 <=1 
C724: x22+x59 <=1 
C725: x22+x61-y22_61 <=1 
C726: x22+x62-y22_62 <=1 
C727: x22+x65-y22_65 <=1 
C728: x23+x25 <=1 
C729: x23+x26 <=1 
C730: x23+x28 <=1 
C731: x23+x32 <=1 
C732: x23+x33-y23_33 <=1 
C733: x23+x34-y23_34 <=1 
C734: x23+x35 <=1 
C735: x23+x36-y23_36 <=1 
C736: x23+x37 <=1 
C737: x23+x42-y23_42 <=1 
C738: x23+x48-y23_48 <=1 
C739: x23+x50-y23_50 <=1 
C740: x23+x51-y23_51 <=1 
C741: x23+x52 <=1 
C742: x23+x53-y23_53 <=1 
C743: x23+x54 <=1 
C744: x23+x55-y23_55 <=1 
C745: x23+x59 <=1 
C746: x23+x60 <=1 
C747: x23+x61-y23_61 <=1 
C748: x24+x25 <=1 
C749: x24+x26 <=1 
C750: x24+x27 <=1 
C751: x24+x28-y24_28 <=1 
C752: x24+x29-y24_29 <=1 
C753: x24+x30 <=1 
C754: x24+x33 <=1 
C755: x24+x34 <=1 
C756: x24+x35 <=1 
C757: x24+x37 <=1 
C758: x24+x38 <=1 
C759: x24+x41 <=1 
C760: x24+x44-y24_44 <=1 
C761: x24+x46-y24_46 <=1 
C762: x24+x48-y24_48 <=1 
C763: x24+x53 <=1 
C764: x24+x55-y24_55 <=1 
C765: x24+x56-y24_56 <=1 
C766: x24+x57-y24_57 <=1 
C767: x24+x58-y24_58 <=1 
C768: x24+x59-y24_59 <=1 
C769: x24+x60 <=1 
C770: x24+x62 <=1 
C771: x24+x63-y24_63 <=1 
C772: x25+x26 <=1 
C773: x25+x29-y25_29 <=1 
C774: x25+x31-y25_31 <=1 
C775: x25+x33 <=1 
C776: x25+x36 <=1 
C777: x25+x37 <=1 
C778: x25+x39-y25_39 <=1 
C779: x25+x40-y25_40 <=1 
C780: x25+x41 <=1 
C781: x25+x47-y25_47 <=1 
C782: x25+x48 <=1 
C783: x25+x49 <=1 
C784: x25+x51-y25_51 <=1 
C785: x25+x54 <=1 
C786: x25+x55-y25_55 <=1 
C787: x25+x56-y25_56 <=1 
C788: x25+x58 <=1 
C789: x25+x60 <=1 
C790: x25+x61 <=1 
C791: x25+x63-y25_63 <=1 
C792: x25+x64 <=1 
C793: x25+x65-y25_65 <=1 
C794: x26+x28 <=1 
C795: x26+x31 <=1 
C796: x26+x32-y26_32 <=1 
C797: x26+x34-y26_34 <=1 
C798: x26+x35-y26_35 <=1 
C799: x26+x37 <=1 
C800: x26+x40 <=1 
C801: x26+x41-y26_41 <=1 
C802: x26+x45-y26_45 <=1 
C803: x26+x46 <=1 
C804: x26+x47 <=1 
C805: x26+x48-y26_48 <=1 
C806: x26+x52-y26_52 <=1 
C807: x26+x54 <=1 
C808: x26+x55-y26_55 <=1 
C809: x26+x58 <=1 
C810: x26+x59-y26_59 <=1 
C811: x26+x60 <=1 
C812: x26+x63-y26_63 <=1 
C813: x26+x64-y26_64 <=1 
C814: x26+x65 <=1 
C815: x27+x30 <=1 
C816: x27+x32 <=1 
C817: x27+x33-y27_33 <=1 
C818: x27+x34-y27_34 <=1 
C819: x27+x35 <=1 
C820: x27+x36 <=1 
C821: x27+x39-y27_39 <=1 
C822: x27+x40 <=1 
C823: x27+x44 <=1 
C824: x27+x45 <=1 
C825: x27+x46 <=1 
C826: x27+x48 <=1 
C827: x27+x49 <=1 
C828: x27+x50-y27_50 <=1 
C829: x27+x52 <=1 
C830: x27+x53 <=1 
C831: x27+x54 <=1 
C832: x27+x55-y27_55 <=1 
C833: x27+x56-y27_56 <=1 
C834: x27+x57-y27_57 <=1 
C835: x27+x58 <=1 
C836: x27+x59-y27_59 <=1 
C837: x27+x61 <=1 
C838: x27+x63-y27_63 <=1 
C839: x27+x65-y27_65 <=1 
C840: x28+x29-y28_29 <=1 
C841: x28+x30 <=1 
C842: x28+x31-y28_31 <=1 
C843: x28+x32 <=1 
C844: x28+x33 <=1 
C845: x28+x34-y28_34 <=1 
C846: x28+x35-y28_35 <=1 
C847: x28+x36 <=1 
C848: x28+x40-y28_40 <=1 
C849: x28+x42-y28_42 <=1 
C850: x28+x46-y28_46 <=1 
C851: x28+x47-y28_47 <=1 
C852: x28+x49-y28_49 <=1 
C853: x28+x52-y28_52 <=1 
C854: x28+x53 <=1 
C855: x28+x54 <=1 
C856: x28+x56 <=1 
C857: x28+x58 <=1 
C858: x28+x59 <=1 
C859: x28+x61-y28_61 <=1 
C860: x28+x62 <=1 
C861: x28+x64 <=1 
C862: x28+x65-y28_65 <=1 
C863: x29+x31 <=1 
C864: x29+x33-y29_33 <=1 
C865: x29+x34-y29_34 <=1 
C866: x29+x35-y29_35 <=1 
C867: x29+x38 <=1 
C868: x29+x41 <=1 
C869: x29+x43 <=1 
C870: x29+x45 <=1 
C871: x29+x46 <=1 
C872: x29+x48-y29_48 <=1 
C873: x29+x50-y29_50 <=1 
C874: x29+x51-y29_51 <=1 
C875: x29+x53 <=1 
C876: x29+x57-y29_57 <=1 
C877: x29+x58-y29_58 <=1 
C878: x29+x60 <=1 
C879: x29+x64 <=1 
C880: x29+x65-y29_65 <=1 
C881: x30+x31 <=1 
C882: x30+x32-y30_32 <=1 
C883: x30+x36-y30_36 <=1 
C884: x30+x37 <=1 
C885: x30+x38-y30_38 <=1 
C886: x30+x39 <=1 
C887: x30+x42-y30_42 <=1 
C888: x30+x45 <=1 
C889: x30+x46 <=1 
C890: x30+x47-y30_47 <=1 
C891: x30+x48 <=1 
C892: x30+x51-y30_51 <=1 
C893: x30+x52 <=1 
C894: x30+x57 <=1 
C895: x30+x59 <=1 
C896: x30+x60-y30_60 <=1 
C897: x30+x61-y30_61 <=1 
C898: x30+x63 <=1 
C899: x30+x65-y30_65 <=1 
C900: x31+x32 <=1 
C901: x31+x33-y31_33 <=1 
C902: x31+x34-y31_34 <=1 
C903: x31+x36-y31_36 <=1 
C904: x31+x37-y31_37 <=1 
C905: x31+x40 <=1 
C906: x31+x42-y31_42 <=1 
C907: x31+x44 <=1 
C908: x31+x46-y31_46 <=1 
C909: x31+x52-y31_52 <=1 
C910: x31+x54 <=1 
C911: x31+x56-y31_56 <=1 
C912: x31+x58 <=1 
C913: x31+x59-y31_59 <=1 
C914: x31+x60 <=1 
C915: x31+x61-y31_61 <=1 
C916: x32+x35-y32_35 <=1 
C917: x32+x37-y32_37 <=1 
C918: x32+x40-y32_40 <=1 
C919: x32+x42 <=1 
C920: x32+x43 <=1 
C921: x32+x44 <=1 
C922: x32+x46-y32_46 <=1 
C923: x32+x48 <=1 
C924: x32+x49 <=1 
C925: x32+x52-y32_52 <=1 
C926: x32+x54 <=1 
C927: x32+x55 <=1 
C928: x32+x56 <=1 
C929: x32+x57 <=1 
C930: x32+x58-y32_58 <=1 
C931: x32+x59 <=1 
C932: x32+x61 <=1 
C933: x32+x63-y32_63 <=1 
C934: x32+x64 <=1 
C935: x33+x34 <=1 
C936: x33+x35-y33_35 <=1 
C937: x33+x37-y33_37 <=1 
C938: x33+x38-y33_38 <=1 
C939: x33+x39 <=1 
C940: x33+x40 <=1 
C941: x33+x41 <=1 
C942: x33+x42 <=1 
C943: x33+x43 <=1 
C944: x33+x44-y33_44 <=1 
C945: x33+x45-y33_45 <=1 
C946: x33+x46-y33_46 <=1 
C947: x33+x47 <=1 
C948: x33+x49-y33_49 <=1 
C949: x33+x53-y33_53 <=1 
C950: x33+x54-y33_54 <=1 
C951: x33+x55 <=1 
C952: x33+x57 <=1 
C953: x33+x59-y33_59 <=1 
C954: x33+x60 <=1 
C955: x33+x61-y33_61 <=1 
C956: x33+x62-y33_62 <=1 
C957: x33+x63 <=1 
C958: x33+x64-y33_64 <=1 
C959: x34+x35 <=1 
C960: x34+x36 <=1 
C961: x34+x38 <=1 
C962: x34+x39 <=1 
C963: x34+x40 <=1 
C964: x34+x41-y34_41 <=1 
C965: x34+x42 <=1 
C966: x34+x43-y34_43 <=1 
C967: x34+x44-y34_44 <=1 
C968: x34+x45 <=1 
C969: x34+x46 <=1 
C970: x34+x47 <=1 
C971: x34+x48-y34_48 <=1 
C972: x34+x51 <=1 
C973: x34+x52 <=1 
C974: x34+x54 <=1 
C975: x34+x55-y34_55 <=1 
C976: x34+x56-y34_56 <=1 
C977: x34+x57 <=1 
C978: x34+x59-y34_59 <=1 
C979: x34+x60-y34_60 <=1 
C980: x34+x61-y34_61 <=1 
C981: x34+x62 <=1 
C982: x34+x64 <=1 
C983: x34+x65 <=1 
C984: x35+x40 <=1 
C985: x35+x42 <=1 
C986: x35+x44-y35_44 <=1 
C987: x35+x45 <=1 
C988: x35+x47 <=1 
C989: x35+x48-y35_48 <=1 
C990: x35+x49-y35_49 <=1 
C991: x35+x50 <=1 
C992: x35+x51-y35_51 <=1 
C993: x35+x52-y35_52 <=1 
C994: x35+x53-y35_53 <=1 
C995: x35+x54-y35_54 <=1 
C996: x35+x55 <=1 
C997: x35+x58-y35_58 <=1 
C998: x35+x60-y35_60 <=1 
C999: x35+x61-y35_61 <=1 
C1000: x35+x62-y35_62 <=1 
C1001: x35+x63 <=1 
C1002: x35+x64-y35_64 <=1 
C1003: x35+x65-y35_65 <=1 
C1004: x36+x37 <=1 
C1005: x36+x42-y36_42 <=1 
C1006: x36+x43 <=1 
C1007: x36+x44 <=1 
C1008: x36+x46-y36_46 <=1 
C1009: x36+x49 <=1 
C1010: x36+x50 <=1 
C1011: x36+x51-y36_51 <=1 
C1012: x36+x54 <=1 
C1013: x36+x55-y36_55 <=1 
C1014: x36+x56-y36_56 <=1 
C1015: x36+x59-y36_59 <=1 
C1016: x36+x60-y36_60 <=1 
C1017: x36+x61 <=1 
C1018: x36+x65-y36_65 <=1 
C1019: x37+x42 <=1 
C1020: x37+x43 <=1 
C1021: x37+x44-y37_44 <=1 
C1022: x37+x49-y37_49 <=1 
C1023: x37+x50-y37_50 <=1 
C1024: x37+x51-y37_51 <=1 
C1025: x37+x54 <=1 
C1026: x37+x58-y37_58 <=1 
C1027: x37+x59-y37_59 <=1 
C1028: x37+x61 <=1 
C1029: x37+x63-y37_63 <=1 
C1030: x37+x65-y37_65 <=1 
C1031: x38+x39 <=1 
C1032: x38+x40-y38_40 <=1 
C1033: x38+x45 <=1 
C1034: x38+x48 <=1 
C1035: x38+x49 <=1 
C1036: x38+x50 <=1 
C1037: x38+x52 <=1 
C1038: x38+x54-y38_54 <=1 
C1039: x38+x57-y38_57 <=1 
C1040: x38+x58-y38_58 <=1 
C1041: x38+x59 <=1 
C1042: x38+x60 <=1 
C1043: x38+x61 <=1 
C1044: x38+x62-y38_62 <=1 
C1045: x38+x63-y38_63 <=1 
C1046: x38+x64-y38_64 <=1 
C1047: x39+x40-y39_40 <=1 
C1048: x39+x42 <=1 
C1049: x39+x43 <=1 
C1050: x39+x44-y39_44 <=1 
C1051: x39+x45 <=1 
C1052: x39+x47-y39_47 <=1 
C1053: x39+x48 <=1 
C1054: x39+x49-y39_49 <=1 
C1055: x39+x52 <=1 
C1056: x39+x54 <=1 
C1057: x39+x55 <=1 
C1058: x39+x56-y39_56 <=1 
C1059: x39+x59 <=1 
C1060: x39+x60 <=1 
C1061: x39+x61-y39_61 <=1 
C1062: x39+x62 <=1 
C1063: x39+x63-y39_63 <=1 
C1064: x39+x65 <=1 
C1065: x40+x41-y40_41 <=1 
C1066: x40+x42-y40_42 <=1 
C1067: x40+x44 <=1 
C1068: x40+x46-y40_46 <=1 
C1069: x40+x49-y40_49 <=1 
C1070: x40+x50 <=1 
C1071: x40+x51-y40_51 <=1 
C1072: x40+x52 <=1 
C1073: x40+x53-y40_53 <=1 
C1074: x40+x54 <=1 
C1075: x40+x55-y40_55 <=1 
C1076: x40+x56-y40_56 <=1 
C1077: x40+x57-y40_57 <=1 
C1078: x40+x58-y40_58 <=1 
C1079: x40+x60-y40_60 <=1 
C1080: x40+x61-y40_61 <=1 
C1081: x40+x63 <=1 
C1082: x40+x64 <=1 
C1083: x40+x65-y40_65 <=1 
C1084: x41+x42 <=1 
C1085: x41+x43-y41_43 <=1 
C1086: x41+x47 <=1 
C1087: x41+x50-y41_50 <=1 
C1088: x41+x51-y41_51 <=1 
C1089: x41+x52 <=1 
C1090: x41+x56 <=1 
C1091: x41+x58-y41_58 <=1 
C1092: x41+x61 <=1 
C1093: x41+x62 <=1 
C1094: x41+x63 <=1 
C1095: x41+x64-y41_64 <=1 
C1096: x42+x43-y42_43 <=1 
C1097: x42+x44-y42_44 <=1 
C1098: x42+x45-y42_45 <=1 
C1099: x42+x46 <=1 
C1100: x42+x47-y42_47 <=1 
C1101: x42+x48-y42_48 <=1 
C1102: x42+x49 <=1 
C1103: x42+x51 <=1 
C1104: x42+x54-y42_54 <=1 
C1105: x42+x56 <=1 
C1106: x42+x58-y42_58 <=1 
C1107: x42+x59 <=1 
C1108: x42+x60-y42_60 <=1 
C1109: x42+x62 <=1 
C1110: x42+x63 <=1 
C1111: x42+x64 <=1 
C1112: x43+x44-y43_44 <=1 
C1113: x43+x45 <=1 
C1114: x43+x46-y43_46 <=1 
C1115: x43+x47 <=1 
C1116: x43+x48 <=1 
C1117: x43+x50 <=1 
C1118: x43+x51 <=1 
C1119: x43+x52 <=1 
C1120: x43+x54 <=1 
C1121: x43+x57-y43_57 <=1 
C1122: x43+x58-y43_58 <=1 
C1123: x43+x59-y43_59 <=1 
C1124: x43+x60 <=1 
C1125: x43+x61-y43_61 <=1 
C1126: x43+x62-y43_62 <=1 
C1127: x44+x45 <=1 
C1128: x44+x47-y44_47 <=1 
C1129: x44+x48 <=1 
C1130: x44+x49 <=1 
C1131: x44+x50 <=1 
C1132: x44+x52 <=1 
C1133: x44+x54-y44_54 <=1 
C1134: x44+x55 <=1 
C1135: x44+x57 <=1 
C1136: x44+x58-y44_58 <=1 
C1137: x44+x59 <=1 
C1138: x44+x60 <=1 
C1139: x44+x61 <=1 
C1140: x44+x62-y44_62 <=1 
C1141: x44+x64-y44_64 <=1 
C1142: x44+x65-y44_65 <=1 
C1143: x45+x46-y45_46 <=1 
C1144: x45+x47 <=1 
C1145: x45+x49-y45_49 <=1 
C1146: x45+x50 <=1 
C1147: x45+x52 <=1 
C1148: x45+x53-y45_53 <=1 
C1149: x45+x56 <=1 
C1150: x45+x58 <=1 
C1151: x45+x59 <=1 
C1152: x45+x60-y45_60 <=1 
C1153: x45+x61 <=1 
C1154: x45+x62 <=1 
C1155: x45+x63-y45_63 <=1 
C1156: x45+x64-y45_64 <=1 
C1157: x46+x47-y46_47 <=1 
C1158: x46+x49-y46_49 <=1 
C1159: x46+x50 <=1 
C1160: x46+x51 <=1 
C1161: x46+x54 <=1 
C1162: x46+x55-y46_55 <=1 
C1163: x46+x56-y46_56 <=1 
C1164: x46+x57 <=1 
C1165: x46+x58 <=1 
C1166: x46+x59 <=1 
C1167: x46+x60 <=1 
C1168: x46+x61-y46_61 <=1 
C1169: x46+x63 <=1 
C1170: x46+x64 <=1 
C1171: x46+x65-y46_65 <=1 
C1172: x47+x49-y47_49 <=1 
C1173: x47+x52-y47_52 <=1 
C1174: x47+x54-y47_54 <=1 
C1175: x47+x56 <=1 
C1176: x47+x58-y47_58 <=1 
C1177: x47+x59 <=1 
C1178: x47+x60 <=1 
C1179: x47+x64 <=1 
C1180: x48+x50 <=1 
C1181: x48+x51 <=1 
C1182: x48+x53 <=1 
C1183: x48+x54-y48_54 <=1 
C1184: x48+x56 <=1 
C1185: x48+x57 <=1 
C1186: x48+x58 <=1 
C1187: x48+x61-y48_61 <=1 
C1188: x48+x62 <=1 
C1189: x48+x63 <=1 
C1190: x48+x64 <=1 
C1191: x49+x51 <=1 
C1192: x49+x54-y49_54 <=1 
C1193: x49+x56-y49_56 <=1 
C1194: x49+x58 <=1 
C1195: x49+x59 <=1 
C1196: x49+x61-y49_61 <=1 
C1197: x49+x63-y49_63 <=1 
C1198: x49+x64-y49_64 <=1 
C1199: x50+x52 <=1 
C1200: x50+x53-y50_53 <=1 
C1201: x50+x55 <=1 
C1202: x50+x56-y50_56 <=1 
C1203: x50+x57 <=1 
C1204: x50+x59 <=1 
C1205: x50+x62 <=1 
C1206: x50+x63-y50_63 <=1 
C1207: x50+x64 <=1 
C1208: x50+x65-y50_65 <=1 
C1209: x51+x52-y51_52 <=1 
C1210: x51+x53-y51_53 <=1 
C1211: x51+x54-y51_54 <=1 
C1212: x51+x55-y51_55 <=1 
C1213: x51+x57-y51_57 <=1 
C1214: x51+x59-y51_59 <=1 
C1215: x51+x60-y51_60 <=1 
C1216: x51+x62-y51_62 <=1 
C1217: x51+x63 <=1 
C1218: x51+x64 <=1 
C1219: x52+x53-y52_53 <=1 
C1220: x52+x54 <=1 
C1221: x52+x56-y52_56 <=1 
C1222: x52+x62 <=1 
C1223: x52+x63 <=1 
C1224: x52+x64 <=1 
C1225: x52+x65-y52_65 <=1 
C1226: x53+x55-y53_55 <=1 
C1227: x53+x59-y53_59 <=1 
C1228: x53+x62 <=1 
C1229: x53+x63 <=1 
C1230: x53+x65-y53_65 <=1 
C1231: x54+x56 <=1 
C1232: x54+x57-y54_57 <=1 
C1233: x54+x59 <=1 
C1234: x54+x60-y54_60 <=1 
C1235: x54+x61 <=1 
C1236: x54+x63 <=1 
C1237: x54+x64-y54_64 <=1 
C1238: x55+x56 <=1 
C1239: x55+x58 <=1 
C1240: x55+x62-y55_62 <=1 
C1241: x55+x63 <=1 
C1242: x55+x64 <=1 
C1243: x55+x65 <=1 
C1244: x56+x57-y56_57 <=1 
C1245: x56+x62-y56_62 <=1 
C1246: x56+x65-y56_65 <=1 
C1247: x57+x58-y57_58 <=1 
C1248: x57+x63-y57_63 <=1 
C1249: x57+x64 <=1 
C1250: x57+x65 <=1 
C1251: x58+x62 <=1 
C1252: x58+x64 <=1 
C1253: x59+x60-y59_60 <=1 
C1254: x59+x65 <=1 
C1255: x60+x64-y60_64 <=1 
C1256: x61+x62 <=1 
C1257: x61+x65-y61_65 <=1 
C1258: x62+x64-y62_64 <=1 
C1259: x63+x64 <=1 

binary
x0
x1
x2
x3
x4
x5
x6
x7
x8
x9
x10
x11
x12
x13
x14
x15
x16
x17
x18
x19
x20
x21
x22
x23
x24
x25
x26
x27
x28
x29
x30
x31
x32
x33
x34
x35
x36
x37
x38
x39
x40
x41
x42
x43
x44
x45
x46
x47
x48
x49
x50
x51
x52
x53
x54
x55
x56
x57
x58
x59
x60
x61
x62
x63
x64
x65
