problem_generation/data/GISP/train/er_n=66_m=1259_p=0.60_SET2_setparam=100.00_alpha=0.50_261.sol
objective value:                                 1181
x0                                                  1 	(obj:100)
x5                                                  1 	(obj:100)
x19                                                 1 	(obj:100)
x20                                                 1 	(obj:100)
x22                                                 1 	(obj:100)
x27                                                 1 	(obj:100)
x31                                                 1 	(obj:100)
x37                                                 1 	(obj:100)
x47                                                 1 	(obj:100)
x62                                                 1 	(obj:100)
x63                                                 1 	(obj:100)
x65                                                 1 	(obj:100)
y5_65                                               1 	(obj:-1)
y19_65                                              1 	(obj:-1)
y5_31                                               1 	(obj:-1)
y0_65                                               1 	(obj:-1)
y37_63                                              1 	(obj:-1)
y27_63                                              1 	(obj:-1)
y31_37                                              1 	(obj:-1)
y0_27                                               1 	(obj:-1)
y0_31                                               1 	(obj:-1)
y20_65                                              1 	(obj:-1)
y5_19                                               1 	(obj:-1)
y20_31                                              1 	(obj:-1)
y0_62                                               1 	(obj:-1)
y37_65                                              1 	(obj:-1)
y27_65                                              1 	(obj:-1)
y22_62                                              1 	(obj:-1)
y19_20                                              1 	(obj:-1)
y0_47                                               1 	(obj:-1)
y22_65                                              1 	(obj:-1)
